
SystemName       scat
SystemLabel      scat
NumberOfAtoms    112

NumberOfSpecies  1
%block ChemicalSpeciesLabel
    1    6  C
%endblock ChemicalSpeciesLabel

 

LatticeConstant 1.0 Ang
%block LatticeVectors
  20.7202700000    0.0000000000    0.0000000000
   0.0000000000   21.6271870000    0.0000000000
   0.0000000000    0.0000000000   32.2688450000
%endblock LatticeVectors

AtomicCoordinatesFormat NotScaledCartesianAng
%block AtomicCoordinatesAndAtomicSpecies
3.412262	0.813594	0.814558	1
0.813668	0.813594	0.814558	1
8.608377	0.813594	0.814558	1
6.009783	0.813594	0.814558	1
2.111893	0.813594	1.559507	1
4.710487	0.813594	1.559507	1
7.308008	0.813594	1.559507	1
9.906602	0.813594	1.559507	1
4.710487	0.813594	3.053094	1
7.308008	0.813594	3.053094	1
9.906602	0.813594	3.053094	1
2.111893	0.813594	3.053094	1
0.813668	0.813594	3.795277	1
6.009783	0.813594	3.795277	1
3.412262	0.813594	3.795277	1
8.608377	0.813594	3.795277	1
3.412262	0.813594	5.424393	1
0.813668	0.813594	5.424393	1
8.608377	0.813594	5.424393	1
6.009783	0.813594	5.424393	1
2.111893	0.813594	6.169342	1
4.710487	0.813594	6.169342	1
7.308008	0.813594	6.169342	1
9.906602	0.813594	6.169342	1
4.710487	0.813594	7.662929	1
7.308008	0.813594	7.662929	1
9.906602	0.813594	7.662929	1
2.111893	0.813594	7.662929	1
0.813668	0.813594	8.405112	1
6.009783	0.813594	8.405112	1
3.412262	0.813594	8.405112	1
8.608377	0.813594	8.405112	1
3.412262	0.813594	10.034228	1
0.813668	0.813594	10.034228	1
8.608377	0.813594	10.034228	1
6.009783	0.813594	10.034228	1
2.111893	0.813594	10.779177	1
4.710487	0.813594	10.779177	1
7.308008	0.813594	10.779177	1
9.906602	0.813594	10.779177	1
4.710487	0.813594	12.272764	1
7.308008	0.813594	12.272764	1
9.906602	0.813594	12.272764	1
2.111893	0.813594	12.272764	1
0.813668	0.813594	13.014947	1
6.009783	0.813594	13.014947	1
3.412262	0.813594	13.014947	1
8.608377	0.813594	13.014947	1
3.412262	0.813594	14.644063	1
0.813668	0.813594	14.644063	1
8.608377	0.813594	14.644063	1
6.009783	0.813594	14.644063	1
2.111893	0.813594	15.389012	1
4.710487	0.813594	15.389012	1
7.308008	0.813594	15.389012	1
9.906602	0.813594	15.389012	1
4.710487	0.813594	16.882599	1
7.308008	0.813594	16.882599	1
9.906602	0.813594	16.882599	1
2.111893	0.813594	16.882599	1
0.813668	0.813594	17.624782	1
6.009783	0.813594	17.624782	1
3.412262	0.813594	17.624782	1
8.608377	0.813594	17.624782	1
3.412262	0.813594	19.253898	1
0.813668	0.813594	19.253898	1
8.608377	0.813594	19.253898	1
6.009783	0.813594	19.253898	1
2.111893	0.813594	19.998847	1
4.710487	0.813594	19.998847	1
7.308008	0.813594	19.998847	1
9.906602	0.813594	19.998847	1
4.710487	0.813594	21.492434	1
7.308008	0.813594	21.492434	1
9.906602	0.813594	21.492434	1
2.111893	0.813594	21.492434	1
0.813668	0.813594	22.234617	1
6.009783	0.813594	22.234617	1
3.412262	0.813594	22.234617	1
8.608377	0.813594	22.234617	1
3.412262	0.813594	23.863733	1
0.813668	0.813594	23.863733	1
8.608377	0.813594	23.863733	1
6.009783	0.813594	23.863733	1
2.111893	0.813594	24.608682	1
4.710487	0.813594	24.608682	1
7.308008	0.813594	24.608682	1
9.906602	0.813594	24.608682	1
4.710487	0.813594	26.102269	1
7.308008	0.813594	26.102269	1
9.906602	0.813594	26.102269	1
2.111893	0.813594	26.102269	1
0.813668	0.813594	26.844452	1
6.009783	0.813594	26.844452	1
3.412262	0.813594	26.844452	1
8.608377	0.813594	26.844452	1
3.412262	0.813594	28.473568	1
0.813668	0.813594	28.473568	1
8.608377	0.813594	28.473568	1
6.009783	0.813594	28.473568	1
2.111893	0.813594	29.218517	1
4.710487	0.813594	29.218517	1
7.308008	0.813594	29.218517	1
9.906602	0.813594	29.218517	1
4.710487	0.813594	30.712104	1
7.308008	0.813594	30.712104	1
9.906602	0.813594	30.712104	1
2.111893	0.813594	30.712104	1
0.813668	0.813594	31.454287	1
6.009783	0.813594	31.454287	1
3.412262	0.813594	31.454287	1
8.608377	0.813594	31.454287	1
%endblock AtomicCoordinatesAndAtomicSpecies

%block kgrid_Monkhorst_Pack
1   0   0   0.0
0   1   0   0.0
0   0   3  0.0
%endblock kgrid_Monkhorst_Pack

PAO.BasisSize    SZP
PAO.EnergyShift 0.03 Ry
==================================================
==================================================
# General variables

ElectronicTemperature  300 K 
MeshCutoff           250. Ry
xc.functional         GGA           # Exchange-correlation functional
xc.authors            PBE 
SpinPolarized .false.
SolutionMethod Transiesta 
PAO.SplitNorm 0.15
==================================================
==================================================
# SCF variables

DM.MixSCF1   T
MaxSCFIterations      300           # Maximum number of SCF iter
DM.MixingWeight 0.002
DM.Tolerance          1.d-4         # Tolerance in maximum difference
DM.UseSaveDM          true          # to use continuation files
DM.NumberPulay         7
Diag.DivideAndConquer  no
#Diag.ParallelOverK     yes

==================================================
==================================================
# MD variables

MD.FinalTimeStep 1
MD.TypeOfRun CG
MD.NumCGsteps     000
MD.UseSaveXV      .true.

==================================================
==================================================
# Output variables

WriteMullikenPop                1
WriteBands                      .false.
SaveRho                         true 
SaveDeltaRho                    .false.
SaveHS                          .false.
SaveElectrostaticPotential      True 
SaveTotalPotential              no
WriteCoorXmol                   .true.
WriteMDXmol                     .true.
WriteMDhistory                  .false.
WriteEigenvalues                yes
TS.Voltage    0.10000 eV

%block TS.Atoms.Buffer
  atom from 1 to 16
  atom from -16 to -1
%endblock TS.Atoms.Buffer

%block TS.ChemPots
  Left
  Right
%endblock TS.ChemPots

%block TS.ChemPot.Left
  mu V/2
  contour.eq
    begin
      c-Left
      t-Left
    end
%endblock TS.ChemPot.Left
%block TS.ChemPot.Right
  mu -V/2
  contour.eq
    begin
      c-Right
      t-Right
    end
%endblock TS.ChemPot.Right

TS.Elecs.Bulk true
TS.Elecs.DM.Update cross-terms
TS.Elecs.GF.ReUse true
%block TS.Elecs
  Left
  Right
%endblock TS.Elecs

%block TS.Elec.Left
  HS elec.HSX
  chem-pot Left
  semi-inf-dir -a3
  elec-pos begin 17
  used-atoms 16
%endblock TS.Elec.Left

%block TS.Elec.Right
  HS elec.HSX
  chem-pot Right
  semi-inf-dir +a3
  elec-pos end -17
  used-atoms 16
%endblock TS.Elec.Right

TS.Contours.Eq.Pole    2.50000 eV
%block TS.Contour.c-Left
  part circle
   from  -40.00000 eV + V/2 to -10. kT + V/2
    points 25
     method g-legendre
%endblock TS.Contour.c-Left
%block TS.Contour.t-Left
  part tail
   from prev to inf
    points 10
     method g-fermi
%endblock TS.Contour.t-Left
%block TS.Contour.c-Right
  part circle
   from  -40.00000 eV - V/2 to -10. kT - V/2
    points 25
     method g-legendre
%endblock TS.Contour.c-Right
%block TS.Contour.t-Right
  part tail
   from prev to inf
    points 10
     method g-fermi
%endblock TS.Contour.t-Right

TS.Elecs.Eta    0.0001000000 eV
%block TS.Contours.nEq
  neq
%endblock TS.Contours.nEq
%block TS.Contour.nEq.neq
  part line
   from -|V|/2 - 5 kT to |V|/2 + 5 kT
    delta    0.01000 eV
     method mid-rule
%endblock TS.Contour.nEq.neq



# TBtrans options

TBT.T.Eig 3
TBT.Elecs.Eta    0.0001000000 eV

%block TBT.Contours
  neq
%endblock TBT.Contours

%block TBT.Contour.neq
  part line
   from   -3.00000 eV to    3.00000 eV
    delta    0.05941 eV
     method mid-rule
%endblock TBT.Contour.neq

# It is advised to define a device region of
# particular interest
 
